Cost: 568
0-16-63-43-41-42-64-22-0
0-37-20-60-36-69-21-30-0
0-17-44-18-25-31-58-26-0
0-4-45-29-5-15-57-27-0
0-68-2-28-62-33-6-0
0-34-52-54-19-8-46-67-0
0-38-65-66-11-53-35-7-0
Cost: 568
0-17-44-18-25-31-58-26-0
0-6-33-62-28-2-68-0
0-30-21-69-36-60-20-37-0
0-16-63-43-41-42-64-22-0
0-34-52-54-19-8-46-67-0
0-38-65-66-11-53-35-7-0
0-27-57-15-5-29-45-4-0
Cost: 568
0-16-63-43-41-42-64-22-0
0-37-20-60-36-69-21-30-0
0-17-44-18-25-31-58-26-0
0-4-45-29-5-15-57-27-0
0-68-2-28-62-33-6-0
0-34-52-54-19-8-46-67-0
0-38-65-66-11-53-35-7-0
Cost: 568
0-16-63-43-41-42-64-22-0
0-37-20-60-36-69-21-30-0
0-8-19-54-57-15-5-29-0
0-7-35-53-11-66-65-38-0
0-67-34-46-52-27-45-4-0
0-17-44-18-25-31-58-26-0
0-68-2-28-62-33-6-0
Cost: 568
0-46-8-19-54-52-34-67-0
0-68-2-28-62-33-6-0
0-16-63-43-41-42-64-22-0
0-38-65-66-11-53-35-7-0
0-26-58-31-25-18-44-17-0
0-37-20-60-36-69-21-30-0
0-27-57-15-5-29-45-4-0
Cost: 568
0-16-63-43-41-42-64-22-0
0-37-20-60-36-69-21-30-0
0-8-19-54-57-15-5-29-0
0-38-65-66-11-53-35-7-0
0-26-58-31-25-18-44-17-0
0-68-2-28-62-33-6-0
0-67-46-34-52-27-45-4-0
Cost: 568
0-67-34-46-52-27-45-4-0
0-68-2-28-62-33-6-0
0-26-58-31-25-18-44-17-0
0-38-65-66-11-53-35-7-0
0-29-5-15-57-54-19-8-0
0-37-20-60-36-69-21-30-0
0-16-63-43-41-42-64-22-0
Cost: 568
0-67-34-46-52-27-45-4-0
0-68-2-28-62-33-6-0
0-26-58-31-25-18-44-17-0
0-38-65-66-11-53-35-7-0
0-29-5-15-57-54-19-8-0
0-37-20-60-36-69-21-30-0
0-16-63-43-41-42-64-22-0
Cost: 568
0-37-20-60-36-69-21-30-0
0-68-2-28-62-33-6-0
0-22-64-42-41-43-63-16-0
0-67-46-34-52-27-45-4-0
0-29-5-15-57-54-19-8-0
0-38-65-66-11-53-35-7-0
0-26-58-31-25-18-44-17-0
Cost: 568
0-37-20-60-36-69-21-30-0
0-68-2-28-62-33-6-0
0-22-64-42-41-43-63-16-0
0-67-46-34-52-27-45-4-0
0-29-5-15-57-54-19-8-0
0-38-65-66-11-53-35-7-0
0-26-58-31-25-18-44-17-0
Cost: 568
0-16-63-43-41-42-64-22-0
0-7-35-53-11-66-65-38-0
0-26-58-31-25-18-44-17-0
0-8-19-54-57-15-5-29-0
0-6-33-62-28-2-68-0
0-37-20-60-36-69-21-30-0
0-4-45-27-52-46-34-67-0
Cost: 568
0-68-2-28-62-33-6-0
0-16-63-43-41-42-64-22-0
0-37-20-60-36-69-21-30-0
0-7-35-53-11-66-65-38-0
0-26-58-31-25-18-44-17-0
0-8-19-54-57-15-5-29-0
0-4-45-27-52-34-46-67-0
Cost: 568
0-7-35-53-11-66-65-38-0
0-4-45-29-5-15-57-27-0
0-16-63-43-41-42-64-22-0
0-17-44-18-25-31-58-26-0
0-67-34-52-54-19-8-46-0
0-30-21-69-36-60-20-37-0
0-68-2-28-62-33-6-0
Cost: 568
0-37-20-60-36-69-21-30-0
0-26-58-31-25-18-44-17-0
0-16-63-43-41-42-64-22-0
0-6-33-62-28-2-68-0
0-29-5-15-57-54-19-8-0
0-67-34-46-52-27-45-4-0
0-7-35-53-11-66-65-38-0
Cost: 568
0-37-20-60-36-69-21-30-0
0-26-58-31-25-18-44-17-0
0-16-63-43-41-42-64-22-0
0-6-33-62-28-2-68-0
0-29-5-15-57-54-19-8-0
0-67-34-46-52-27-45-4-0
0-7-35-53-11-66-65-38-0
Cost: 568
0-17-44-18-25-31-58-26-0
0-68-2-28-62-33-6-0
0-46-8-19-54-52-34-67-0
0-22-64-42-41-43-63-16-0
0-7-35-53-11-66-65-38-0
0-4-45-29-5-15-57-27-0
0-37-20-60-36-69-21-30-0
Cost: 568
0-17-44-18-25-31-58-26-0
0-38-65-66-11-53-35-7-0
0-30-29-15-57-54-19-8-0
0-68-2-28-62-33-6-0
0-4-45-27-52-34-46-67-0
0-16-63-43-41-42-64-22-0
0-5-37-20-60-36-69-21-0
Cost: 568
0-4-45-27-52-46-34-67-0
0-6-33-62-28-2-68-0
0-7-35-53-11-66-65-38-0
0-37-20-60-36-69-21-30-0
0-29-5-15-57-54-19-8-0
0-17-44-18-25-31-58-26-0
0-22-64-42-41-43-63-16-0
Cost: 568
0-4-45-27-52-46-34-67-0
0-6-33-62-28-2-68-0
0-7-35-53-11-66-65-38-0
0-37-20-60-36-69-21-30-0
0-29-5-15-57-54-19-8-0
0-17-44-18-25-31-58-26-0
0-22-64-42-41-43-63-16-0
Cost: 568
0-46-8-19-54-52-34-67-0
0-38-65-66-11-53-35-7-0
0-4-45-29-5-15-57-27-0
0-68-2-28-62-33-6-0
0-26-58-31-25-18-44-17-0
0-37-20-60-36-69-21-30-0
0-22-64-42-41-43-63-16-0
Cost: 568
0-46-8-19-54-52-34-67-0
0-38-65-66-11-53-35-7-0
0-4-45-29-5-15-57-27-0
0-68-2-28-62-33-6-0
0-26-58-31-25-18-44-17-0
0-37-20-60-36-69-21-30-0
0-22-64-42-41-43-63-16-0
Cost: 569
0-8-19-54-57-15-29-30-0
0-67-46-34-52-27-45-4-0
0-43-41-42-64-22-28-62-0
0-68-2-33-63-16-6-0
0-5-37-20-60-36-69-21-0
0-38-65-66-11-53-35-7-0
0-17-44-18-25-31-58-26-0
Cost: 568
0-46-8-19-54-52-34-67-0
0-38-65-66-11-53-35-7-0
0-4-45-29-5-15-57-27-0
0-68-2-28-62-33-6-0
0-26-58-31-25-18-44-17-0
0-37-20-60-36-69-21-30-0
0-22-64-42-41-43-63-16-0
Cost: 568
0-17-44-18-25-31-58-26-0
0-38-65-66-11-53-35-7-0
0-30-29-15-57-54-19-8-0
0-68-2-28-62-33-6-0
0-4-45-27-52-34-46-67-0
0-16-63-43-41-42-64-22-0
0-5-37-20-60-36-69-21-0
Cost: 568
0-4-45-27-52-46-34-67-0
0-6-33-62-28-2-68-0
0-7-35-53-11-66-65-38-0
0-37-20-60-36-69-21-30-0
0-29-5-15-57-54-19-8-0
0-17-44-18-25-31-58-26-0
0-22-64-42-41-43-63-16-0
Cost: 568
0-7-35-53-11-66-65-38-0
0-30-21-69-36-60-20-37-0
0-6-33-62-28-2-68-0
0-34-52-54-19-8-46-67-0
0-17-44-18-25-31-58-26-0
0-4-45-29-5-15-57-27-0
0-22-64-42-41-43-63-16-0
Cost: 582
0-67-34-46-8-19-35-7-0
0-33-1-43-42-64-22-62-0
0-68-6-63-16-3-44-17-0
0-29-5-37-20-57-27-52-0
0-12-39-31-25-55-18-51-0
0-28-61-69-36-21-30-45-0
0-11-66-65-38-58-26-0
Cost: 580
0-4-54-19-8-46-34-67-0
0-44-18-25-31-58-12-26-0
0-68-1-43-41-42-64-22-0
0-62-28-61-69-36-21-30-0
0-45-29-5-37-20-57-27-0
0-7-38-65-66-11-53-35-0
0-17-6-33-63-16-51-0
Cost: 568
0-17-44-18-25-31-58-26-0
0-67-34-52-54-19-8-46-0
0-68-2-28-62-33-6-0
0-37-20-60-36-69-21-30-0
0-7-35-53-11-66-65-38-0
0-4-45-29-5-15-57-27-0
0-22-64-42-41-43-63-16-0
Cost: 568
0-37-20-60-36-69-21-30-0
0-22-64-42-41-43-63-16-0
0-38-65-66-11-53-35-7-0
0-6-33-62-28-2-68-0
0-4-45-27-52-34-46-67-0
0-29-5-15-57-54-19-8-0
0-17-44-18-25-31-58-26-0
